NAME : portcgen-16-25
COMMENT : portcgen N=16, seed=25
TYPE : TSP
DIMENSION : 16
EDGE_WEIGHT_TYPE : EUC_2D
NODE_COORD_SECTION
1 -215546 462380
2 -339142 -397928
3 -29936 -351626
4 -247790 11818
5 85393 -9562
6 -20070 133116
7 -168782 -241467
8 133738 -114331
9 313397 234353
10 71133 -112894
11 800076 46533
12 -423292 -420881
13 97040 131422
14 24400 -135458
15 -267638 -203184
16 149999 271788
